benchmark/results/graph__15-1000-0.10-02_16/error_log/graph__15-1000-0.10-02_16_Quinton_Benders_primal_sub_ERRORLOG.lp
\ This file has been generated by DOcplex
\ ENCODING=ISO-8859-1
\Problem name: Quinton Benders_primal_sub

Maximize
 obj: tau
Subject To
 c1: tau <= 0.002252252252
 c2: y_a0_proc_0 + y_a0_proc_1 - tau = 0
 c3: y_a0_proc_0 <= 1
 c4: y_a0_proc_1 <= 0
 c5: tau <= 0.001199040767
 c6: y_a1_proc_0 + y_a1_proc_1 - tau = 0
 c7: y_a1_proc_0 <= 1
 c8: y_a1_proc_1 <= 0
 c9: tau <= 0.001964636542
 c10: y_a2_proc_0 + y_a2_proc_1 - tau = 0
 c11: y_a2_proc_0 <= 1
 c12: y_a2_proc_1 <= 0
 c13: tau <= 0.000833333333
 c14: y_a3_proc_0 + y_a3_proc_1 - tau = 0
 c15: y_a3_proc_0 <= 0
 c16: y_a3_proc_1 <= 1
 c17: tau <= 0.000966183575
 c18: y_a4_proc_1 - tau = 0
 c19: y_a4_proc_1 <= 1
 c20: tau <= 0.001733102253
 c21: y_a5_proc_0 + y_a5_proc_1 - tau = 0
 c22: y_a5_proc_0 <= 1
 c23: y_a5_proc_1 <= 0
 c24: tau <= 0.003184713376
 c25: y_a6_proc_0 + y_a6_proc_1 - tau = 0
 c26: y_a6_proc_0 <= 1
 c27: y_a6_proc_1 <= 0
 c28: tau <= 0.000916590284
 c29: y_a7_proc_0 + y_a7_proc_1 - tau = 0
 c30: y_a7_proc_0 <= 0
 c31: y_a7_proc_1 <= 1
 c32: tau <= 0.000967117988
 c33: y_a8_proc_1 - tau = 0
 c34: y_a8_proc_1 <= 1
 c35: tau <= 0.001070663812
 c36: y_a9_proc_0 + y_a9_proc_1 - tau = 0
 c37: y_a9_proc_0 <= 0
 c38: y_a9_proc_1 <= 1
 c39: tau <= 0.000879507476
 c40: y_a10_proc_0 - tau = 0
 c41: y_a10_proc_0 <= 1
 c42: tau <= 0.002159827214
 c43: y_a11_proc_0 + y_a11_proc_1 - tau = 0
 c44: y_a11_proc_0 <= 1
 c45: y_a11_proc_1 <= 0
 c46: tau <= 0.000919963201
 c47: y_a12_proc_0 + y_a12_proc_1 - tau = 0
 c48: y_a12_proc_0 <= 1
 c49: y_a12_proc_1 <= 0
 c50: tau <= 0.001039501040
 c51: y_a13_proc_1 - tau = 0
 c52: y_a13_proc_1 <= 1
 c53: tau <= 0.001054852321
 c54: y_a14_proc_0 + y_a14_proc_1 - tau = 0
 c55: y_a14_proc_0 <= 1
 c56: y_a14_proc_1 <= 0
 c57: u_a1 - u_a0 - 444 y_a0_proc_0 - 676 y_a0_proc_1 >= 0
 c58: u_a0 - u_a2 - 509 y_a2_proc_0 - 1134 y_a2_proc_1 >= 0
 c59: u_a3 - u_a2 - 509 y_a2_proc_0 - 1134 y_a2_proc_1 >= -1
 c60: u_a2 - u_a4 - 1035 y_a4_proc_1 >= 0
 c61: u_a5 - u_a1 - 834 y_a1_proc_0 - 1300 y_a1_proc_1 >= -1
 c62: u_a6 - u_a3 - 1204 y_a3_proc_0 - 1200 y_a3_proc_1 >= 0
 c63: u_a6 - u_a7 - 840 y_a7_proc_0 - 1091 y_a7_proc_1 >= 0
 c64: u_a8 - u_a5 - 577 y_a5_proc_0 - 809 y_a5_proc_1 >= -1
 c65: u_a9 - u_a3 - 1204 y_a3_proc_0 - 1200 y_a3_proc_1 >= 0
 c66: u_a10 - u_a1 - 834 y_a1_proc_0 - 1300 y_a1_proc_1 >= 0
 c67: u_a10 - u_a11 - 463 y_a11_proc_0 - 1204 y_a11_proc_1 >= 0
 c68: u_a9 - u_a12 - 1087 y_a12_proc_0 - 1233 y_a12_proc_1 >= 0
 c69: u_a13 - u_a9 - 1239 y_a9_proc_0 - 934 y_a9_proc_1 >= 0
 c70: u_a14 - u_a1 - 834 y_a1_proc_0 - 1300 y_a1_proc_1 >= 0
 c71: u_a4 - u_a6 - 314 y_a6_proc_0 - 947 y_a6_proc_1 >= 0
 c72: u_a5 - u_a12 - 1087 y_a12_proc_0 - 1233 y_a12_proc_1 >= -1
 c73: u_a12 - u_a14 - 948 y_a14_proc_0 - 811 y_a14_proc_1 >= -1
 c74: - 962 y_a13_proc_1 >= -1
 c75: - 463 y_a11_proc_0 - 1204 y_a11_proc_1 >= -1
 c76: u_a3 - u_a8 - 1034 y_a8_proc_1 >= 0
 c77: - 577 y_a5_proc_0 - 809 y_a5_proc_1 >= -1
 c78: u_a12 - u_a11 - 463 y_a11_proc_0 - 1204 y_a11_proc_1 >= 0
 c79: u_a4 - u_a7 - 840 y_a7_proc_0 - 1091 y_a7_proc_1 >= 0
 c80: u_a2 - u_a7 - 840 y_a7_proc_0 - 1091 y_a7_proc_1 >= 0
 c81: u_a8 - u_a10 - 1137 y_a10_proc_0 >= -2
 c82: u_a1 - u_a0 - 444 y_a0_proc_0 >= 0
 c83: u_a1 - u_a0 - 676 y_a0_proc_1 >= -2600
 c84: u_a0 - u_a1 - 834 y_a1_proc_0 >= -1
 c85: u_a0 - u_a1 - 1300 y_a1_proc_1 >= -2601
 c86: u_a2 - u_a0 - 444 y_a0_proc_0 >= -1
 c87: u_a2 - u_a0 - 676 y_a0_proc_1 >= -2601
 c88: u_a0 - u_a2 - 509 y_a2_proc_0 >= 0
 c89: u_a0 - u_a2 - 1134 y_a2_proc_1 >= -2600
 c90: u_a3 - u_a0 - 444 y_a0_proc_0 >= -2602
 c91: u_a3 - u_a0 - 676 y_a0_proc_1 >= -2602
 c92: u_a0 - u_a3 - 1204 y_a3_proc_0 >= 1
 c93: u_a0 - u_a3 - 1200 y_a3_proc_1 >= 1
 c94: u_a4 - u_a0 - 676 y_a0_proc_1 >= -2
 c95: u_a0 - u_a4 - 1035 y_a4_proc_1 >= -2599
 c96: u_a5 - u_a0 - 444 y_a0_proc_0 >= -1
 c97: u_a5 - u_a0 - 676 y_a0_proc_1 >= -2601
 c98: u_a0 - u_a5 - 577 y_a5_proc_0 >= 0
 c99: u_a0 - u_a5 - 809 y_a5_proc_1 >= -2600
 c100: u_a6 - u_a0 - 444 y_a0_proc_0 >= -2
 c101: u_a6 - u_a0 - 676 y_a0_proc_1 >= -2602
 c102: u_a0 - u_a6 - 314 y_a6_proc_0 >= 1
 c103: u_a0 - u_a6 - 947 y_a6_proc_1 >= -2599
 c104: u_a7 - u_a0 - 444 y_a0_proc_0 >= -2602
 c105: u_a7 - u_a0 - 676 y_a0_proc_1 >= -2602
 c106: u_a0 - u_a7 - 840 y_a7_proc_0 >= 1
 c107: u_a0 - u_a7 - 1091 y_a7_proc_1 >= 1
 c108: u_a8 - u_a0 - 676 y_a0_proc_1 >= -2602
 c109: u_a0 - u_a8 - 1034 y_a8_proc_1 >= 1
 c110: u_a9 - u_a0 - 444 y_a0_proc_0 >= -2600
 c111: u_a9 - u_a0 - 676 y_a0_proc_1 >= -2600
 c112: u_a0 - u_a9 - 1239 y_a9_proc_0 >= -1
 c113: u_a0 - u_a9 - 934 y_a9_proc_1 >= -1
 c114: u_a10 - u_a0 - 444 y_a0_proc_0 >= 0
 c115: u_a0 - u_a10 - 1137 y_a10_proc_0 >= -1
 c116: u_a11 - u_a0 - 444 y_a0_proc_0 >= -1
 c117: u_a11 - u_a0 - 676 y_a0_proc_1 >= -2601
 c118: u_a0 - u_a11 - 463 y_a11_proc_0 >= 0
 c119: u_a0 - u_a11 - 1204 y_a11_proc_1 >= -2600
 c120: u_a12 - u_a0 - 444 y_a0_proc_0 >= -1
 c121: u_a12 - u_a0 - 676 y_a0_proc_1 >= -2601
 c122: u_a0 - u_a12 - 1087 y_a12_proc_0 >= 0
 c123: u_a0 - u_a12 - 1233 y_a12_proc_1 >= -2600
 c124: u_a13 - u_a0 - 676 y_a0_proc_1 >= 999998699
 c125: u_a0 - u_a13 - 962 y_a13_proc_1 >= -1000001300
 c126: u_a14 - u_a0 - 444 y_a0_proc_0 >= 0
 c127: u_a14 - u_a0 - 676 y_a0_proc_1 >= -2600
 c128: u_a0 - u_a14 - 948 y_a14_proc_0 >= -1
 c129: u_a0 - u_a14 - 811 y_a14_proc_1 >= -2601
 c130: u_a2 - u_a1 - 834 y_a1_proc_0 >= -1
 c131: u_a2 - u_a1 - 1300 y_a1_proc_1 >= -2601
 c132: u_a1 - u_a2 - 509 y_a2_proc_0 >= 0
 c133: u_a1 - u_a2 - 1134 y_a2_proc_1 >= -2600
 c134: u_a3 - u_a1 - 834 y_a1_proc_0 >= -2602
 c135: u_a3 - u_a1 - 1300 y_a1_proc_1 >= -2602
 c136: u_a1 - u_a3 - 1204 y_a3_proc_0 >= 1
 c137: u_a1 - u_a3 - 1200 y_a3_proc_1 >= 1
 c138: u_a4 - u_a1 - 1300 y_a1_proc_1 >= -1
 c139: u_a1 - u_a4 - 1035 y_a4_proc_1 >= -2600
 c140: u_a5 - u_a1 - 834 y_a1_proc_0 >= -1
 c141: u_a5 - u_a1 - 1300 y_a1_proc_1 >= -2601
 c142: u_a1 - u_a5 - 577 y_a5_proc_0 >= 0
 c143: u_a1 - u_a5 - 809 y_a5_proc_1 >= -2600
 c144: u_a6 - u_a1 - 834 y_a1_proc_0 >= -2
 c145: u_a6 - u_a1 - 1300 y_a1_proc_1 >= -2602
 c146: u_a1 - u_a6 - 314 y_a6_proc_0 >= 1
 c147: u_a1 - u_a6 - 947 y_a6_proc_1 >= -2599
 c148: u_a7 - u_a1 - 834 y_a1_proc_0 >= -2602
 c149: u_a7 - u_a1 - 1300 y_a1_proc_1 >= -2602
 c150: u_a1 - u_a7 - 840 y_a7_proc_0 >= 1
 c151: u_a1 - u_a7 - 1091 y_a7_proc_1 >= 1
 c152: u_a8 - u_a1 - 1300 y_a1_proc_1 >= -2602
 c153: u_a1 - u_a8 - 1034 y_a8_proc_1 >= 1
 c154: u_a9 - u_a1 - 834 y_a1_proc_0 >= -2600
 c155: u_a9 - u_a1 - 1300 y_a1_proc_1 >= -2600
 c156: u_a1 - u_a9 - 1239 y_a9_proc_0 >= -1
 c157: u_a1 - u_a9 - 934 y_a9_proc_1 >= -1
 c158: u_a10 - u_a1 - 834 y_a1_proc_0 >= 0
 c159: u_a1 - u_a10 - 1137 y_a10_proc_0 >= -1
 c160: u_a11 - u_a1 - 834 y_a1_proc_0 >= -1
 c161: u_a11 - u_a1 - 1300 y_a1_proc_1 >= -2601
 c162: u_a1 - u_a11 - 463 y_a11_proc_0 >= 0
 c163: u_a1 - u_a11 - 1204 y_a11_proc_1 >= -2600
 c164: u_a12 - u_a1 - 834 y_a1_proc_0 >= -1
 c165: u_a12 - u_a1 - 1300 y_a1_proc_1 >= -2601
 c166: u_a1 - u_a12 - 1087 y_a12_proc_0 >= 0
 c167: u_a1 - u_a12 - 1233 y_a12_proc_1 >= -2600
 c168: u_a13 - u_a1 - 1300 y_a1_proc_1 >= 999998699
 c169: u_a1 - u_a13 - 962 y_a13_proc_1 >= -1000001300
 c170: u_a14 - u_a1 - 834 y_a1_proc_0 >= 0
 c171: u_a14 - u_a1 - 1300 y_a1_proc_1 >= -2600
 c172: u_a1 - u_a14 - 948 y_a14_proc_0 >= -1
 c173: u_a1 - u_a14 - 811 y_a14_proc_1 >= -2601
 c174: u_a3 - u_a2 - 509 y_a2_proc_0 >= -2601
 c175: u_a3 - u_a2 - 1134 y_a2_proc_1 >= -2601
 c176: u_a2 - u_a3 - 1204 y_a3_proc_0 >= 0
 c177: u_a2 - u_a3 - 1200 y_a3_proc_1 >= 0
 c178: u_a4 - u_a2 - 1134 y_a2_proc_1 >= -1
 c179: u_a2 - u_a4 - 1035 y_a4_proc_1 >= -2600
 c180: u_a5 - u_a2 - 509 y_a2_proc_0 >= -1
 c181: u_a5 - u_a2 - 1134 y_a2_proc_1 >= -2601
 c182: u_a2 - u_a5 - 577 y_a5_proc_0 >= 0
 c183: u_a2 - u_a5 - 809 y_a5_proc_1 >= -2600
 c184: u_a6 - u_a2 - 509 y_a2_proc_0 >= -1
 c185: u_a6 - u_a2 - 1134 y_a2_proc_1 >= -2601
 c186: u_a2 - u_a6 - 314 y_a6_proc_0 >= 0
 c187: u_a2 - u_a6 - 947 y_a6_proc_1 >= -2600
 c188: u_a7 - u_a2 - 509 y_a2_proc_0 >= -1
 c189: u_a7 - u_a2 - 1134 y_a2_proc_1 >= -1
 c190: u_a2 - u_a7 - 840 y_a7_proc_0 >= -2600
 c191: u_a2 - u_a7 - 1091 y_a7_proc_1 >= -2600
 c192: u_a8 - u_a2 - 1134 y_a2_proc_1 >= -2602
 c193: u_a2 - u_a8 - 1034 y_a8_proc_1 >= 1
 c194: u_a9 - u_a2 - 509 y_a2_proc_0 >= 0
 c195: u_a9 - u_a2 - 1134 y_a2_proc_1 >= 0
 c196: u_a2 - u_a9 - 1239 y_a9_proc_0 >= -2601
 c197: u_a2 - u_a9 - 934 y_a9_proc_1 >= -2601
 c198: u_a10 - u_a2 - 509 y_a2_proc_0 >= 0
 c199: u_a2 - u_a10 - 1137 y_a10_proc_0 >= -1
 c200: u_a11 - u_a2 - 509 y_a2_proc_0 >= 0
 c201: u_a11 - u_a2 - 1134 y_a2_proc_1 >= -2600
 c202: u_a2 - u_a11 - 463 y_a11_proc_0 >= -1
 c203: u_a2 - u_a11 - 1204 y_a11_proc_1 >= -2601
 c204: u_a12 - u_a2 - 509 y_a2_proc_0 >= 0
 c205: u_a12 - u_a2 - 1134 y_a2_proc_1 >= -2600
 c206: u_a2 - u_a12 - 1087 y_a12_proc_0 >= -1
 c207: u_a2 - u_a12 - 1233 y_a12_proc_1 >= -2601
 c208: u_a13 - u_a2 - 1134 y_a2_proc_1 >= 999998699
 c209: u_a2 - u_a13 - 962 y_a13_proc_1 >= -1000001300
 c210: u_a14 - u_a2 - 509 y_a2_proc_0 >= 1
 c211: u_a14 - u_a2 - 1134 y_a2_proc_1 >= -2599
 c212: u_a2 - u_a14 - 948 y_a14_proc_0 >= -2
 c213: u_a2 - u_a14 - 811 y_a14_proc_1 >= -2602
 c214: u_a4 - u_a3 - 1200 y_a3_proc_1 >= 0
 c215: u_a3 - u_a4 - 1035 y_a4_proc_1 >= -1
 c216: u_a5 - u_a3 - 1204 y_a3_proc_0 >= -2600
 c217: u_a5 - u_a3 - 1200 y_a3_proc_1 >= -2600
 c218: u_a3 - u_a5 - 577 y_a5_proc_0 >= -1
 c219: u_a3 - u_a5 - 809 y_a5_proc_1 >= -1
 c220: u_a6 - u_a3 - 1204 y_a3_proc_0 >= -2600
 c221: u_a6 - u_a3 - 1200 y_a3_proc_1 >= -2600
 c222: u_a3 - u_a6 - 314 y_a6_proc_0 >= -1
 c223: u_a3 - u_a6 - 947 y_a6_proc_1 >= -1
 c224: u_a7 - u_a3 - 1204 y_a3_proc_0 >= -2600
 c225: u_a7 - u_a3 - 1200 y_a3_proc_1 >= 0
 c226: u_a3 - u_a7 - 840 y_a7_proc_0 >= -2601
 c227: u_a3 - u_a7 - 1091 y_a7_proc_1 >= -1
 c228: u_a8 - u_a3 - 1200 y_a3_proc_1 >= -1
 c229: u_a3 - u_a8 - 1034 y_a8_proc_1 >= 0
 c230: u_a9 - u_a3 - 1204 y_a3_proc_0 >= -2599
 c231: u_a9 - u_a3 - 1200 y_a3_proc_1 >= 1
 c232: u_a3 - u_a9 - 1239 y_a9_proc_0 >= -2602
 c233: u_a3 - u_a9 - 934 y_a9_proc_1 >= -2
 c234: u_a10 - u_a3 - 1204 y_a3_proc_0 >= -2599
 c235: u_a3 - u_a10 - 1137 y_a10_proc_0 >= -2
 c236: u_a11 - u_a3 - 1204 y_a3_proc_0 >= 1
 c237: u_a11 - u_a3 - 1200 y_a3_proc_1 >= 1
 c238: u_a3 - u_a11 - 463 y_a11_proc_0 >= -2602
 c239: u_a3 - u_a11 - 1204 y_a11_proc_1 >= -2602
 c240: u_a12 - u_a3 - 1204 y_a3_proc_0 >= 1
 c241: u_a12 - u_a3 - 1200 y_a3_proc_1 >= 1
 c242: u_a3 - u_a12 - 1087 y_a12_proc_0 >= -2602
 c243: u_a3 - u_a12 - 1233 y_a12_proc_1 >= -2602
 c244: u_a13 - u_a3 - 1200 y_a3_proc_1 >= 999999999
 c245: u_a3 - u_a13 - 962 y_a13_proc_1 >= -1000000000
 c246: u_a14 - u_a3 - 1204 y_a3_proc_0 >= -2598
 c247: u_a14 - u_a3 - 1200 y_a3_proc_1 >= -2598
 c248: u_a3 - u_a14 - 948 y_a14_proc_0 >= -3
 c249: u_a3 - u_a14 - 811 y_a14_proc_1 >= -3
 c250: u_a5 - u_a4 - 1035 y_a4_proc_1 >= -2601
 c251: u_a4 - u_a5 - 809 y_a5_proc_1 >= 0
 c252: u_a6 - u_a4 - 1035 y_a4_proc_1 >= -1
 c253: u_a4 - u_a6 - 947 y_a6_proc_1 >= -2600
 c254: u_a7 - u_a4 - 1035 y_a4_proc_1 >= -1
 c255: u_a4 - u_a7 - 1091 y_a7_proc_1 >= 0
 c256: u_a8 - u_a4 - 1035 y_a4_proc_1 >= -2
 c257: u_a4 - u_a8 - 1034 y_a8_proc_1 >= 1
 c258: u_a9 - u_a4 - 1035 y_a4_proc_1 >= 0
 c259: u_a4 - u_a9 - 934 y_a9_proc_1 >= -1
 c260: u_a11 - u_a4 - 1035 y_a4_proc_1 >= 0
 c261: u_a4 - u_a11 - 1204 y_a11_proc_1 >= -2601
 c262: u_a12 - u_a4 - 1035 y_a4_proc_1 >= -2600
 c263: u_a4 - u_a12 - 1233 y_a12_proc_1 >= -1
 c264: u_a13 - u_a4 - 1035 y_a4_proc_1 >= 999999998
 c265: u_a4 - u_a13 - 962 y_a13_proc_1 >= -999999999
 c266: u_a14 - u_a4 - 1035 y_a4_proc_1 >= 1
 c267: u_a4 - u_a14 - 811 y_a14_proc_1 >= -2602
 c268: u_a6 - u_a5 - 577 y_a5_proc_0 >= -1
 c269: u_a6 - u_a5 - 809 y_a5_proc_1 >= -2601
 c270: u_a5 - u_a6 - 314 y_a6_proc_0 >= 0
 c271: u_a5 - u_a6 - 947 y_a6_proc_1 >= -2600
 c272: u_a7 - u_a5 - 577 y_a5_proc_0 >= -2601
 c273: u_a7 - u_a5 - 809 y_a5_proc_1 >= -2601
 c274: u_a5 - u_a7 - 840 y_a7_proc_0 >= 0
 c275: u_a5 - u_a7 - 1091 y_a7_proc_1 >= 0
 c276: u_a8 - u_a5 - 809 y_a5_proc_1 >= -2601
 c277: u_a5 - u_a8 - 1034 y_a8_proc_1 >= 0
 c278: u_a9 - u_a5 - 577 y_a5_proc_0 >= -2600
 c279: u_a9 - u_a5 - 809 y_a5_proc_1 >= -2600
 c280: u_a5 - u_a9 - 1239 y_a9_proc_0 >= -1
 c281: u_a5 - u_a9 - 934 y_a9_proc_1 >= -1
 c282: u_a10 - u_a5 - 577 y_a5_proc_0 >= 1
 c283: u_a5 - u_a10 - 1137 y_a10_proc_0 >= -2
 c284: u_a11 - u_a5 - 577 y_a5_proc_0 >= 0
 c285: u_a11 - u_a5 - 809 y_a5_proc_1 >= -2600
 c286: u_a5 - u_a11 - 463 y_a11_proc_0 >= -1
 c287: u_a5 - u_a11 - 1204 y_a11_proc_1 >= -2601
 c288: u_a12 - u_a5 - 577 y_a5_proc_0 >= 0
 c289: u_a12 - u_a5 - 809 y_a5_proc_1 >= -2600
 c290: u_a5 - u_a12 - 1087 y_a12_proc_0 >= -1
 c291: u_a5 - u_a12 - 1233 y_a12_proc_1 >= -2601
 c292: u_a13 - u_a5 - 809 y_a5_proc_1 >= 999998699
 c293: u_a5 - u_a13 - 962 y_a13_proc_1 >= -1000001300
 c294: u_a14 - u_a5 - 577 y_a5_proc_0 >= 1
 c295: u_a14 - u_a5 - 809 y_a5_proc_1 >= -2599
 c296: u_a5 - u_a14 - 948 y_a14_proc_0 >= -2
 c297: u_a5 - u_a14 - 811 y_a14_proc_1 >= -2602
 c298: u_a7 - u_a6 - 314 y_a6_proc_0 >= -2601
 c299: u_a7 - u_a6 - 947 y_a6_proc_1 >= -2601
 c300: u_a6 - u_a7 - 840 y_a7_proc_0 >= 0
 c301: u_a6 - u_a7 - 1091 y_a7_proc_1 >= 0
 c302: u_a8 - u_a6 - 947 y_a6_proc_1 >= -2601
 c303: u_a6 - u_a8 - 1034 y_a8_proc_1 >= 0
 c304: u_a9 - u_a6 - 314 y_a6_proc_0 >= 1
 c305: u_a9 - u_a6 - 947 y_a6_proc_1 >= 1
 c306: u_a6 - u_a9 - 1239 y_a9_proc_0 >= -2602
 c307: u_a6 - u_a9 - 934 y_a9_proc_1 >= -2602
 c308: u_a10 - u_a6 - 314 y_a6_proc_0 >= 1
 c309: u_a6 - u_a10 - 1137 y_a10_proc_0 >= -2
 c310: u_a11 - u_a6 - 314 y_a6_proc_0 >= 0
 c311: u_a11 - u_a6 - 947 y_a6_proc_1 >= -2600
 c312: u_a6 - u_a11 - 463 y_a11_proc_0 >= -1
 c313: u_a6 - u_a11 - 1204 y_a11_proc_1 >= -2601
 c314: u_a12 - u_a6 - 314 y_a6_proc_0 >= 1
 c315: u_a12 - u_a6 - 947 y_a6_proc_1 >= -2599
 c316: u_a6 - u_a12 - 1087 y_a12_proc_0 >= -2
 c317: u_a6 - u_a12 - 1233 y_a12_proc_1 >= -2602
 c318: u_a13 - u_a6 - 947 y_a6_proc_1 >= 999998699
 c319: u_a6 - u_a13 - 962 y_a13_proc_1 >= -1000001300
 c320: u_a14 - u_a6 - 314 y_a6_proc_0 >= 1
 c321: u_a14 - u_a6 - 947 y_a6_proc_1 >= -2599
 c322: u_a6 - u_a14 - 948 y_a14_proc_0 >= -2
 c323: u_a6 - u_a14 - 811 y_a14_proc_1 >= -2602
 c324: u_a8 - u_a7 - 1091 y_a7_proc_1 >= -1
 c325: u_a7 - u_a8 - 1034 y_a8_proc_1 >= 0
 c326: u_a9 - u_a7 - 840 y_a7_proc_0 >= -2599
 c327: u_a9 - u_a7 - 1091 y_a7_proc_1 >= 1
 c328: u_a7 - u_a9 - 1239 y_a9_proc_0 >= -2602
 c329: u_a7 - u_a9 - 934 y_a9_proc_1 >= -2
 c330: u_a10 - u_a7 - 840 y_a7_proc_0 >= -2599
 c331: u_a7 - u_a10 - 1137 y_a10_proc_0 >= -2
 c332: u_a11 - u_a7 - 840 y_a7_proc_0 >= -2599
 c333: u_a11 - u_a7 - 1091 y_a7_proc_1 >= -2599
 c334: u_a7 - u_a11 - 463 y_a11_proc_0 >= -2
 c335: u_a7 - u_a11 - 1204 y_a11_proc_1 >= -2
 c336: u_a12 - u_a7 - 840 y_a7_proc_0 >= -2599
 c337: u_a12 - u_a7 - 1091 y_a7_proc_1 >= -2599
 c338: u_a7 - u_a12 - 1087 y_a12_proc_0 >= -2
 c339: u_a7 - u_a12 - 1233 y_a12_proc_1 >= -2
 c340: u_a13 - u_a7 - 1091 y_a7_proc_1 >= 999999999
 c341: u_a7 - u_a13 - 962 y_a13_proc_1 >= -1000000000
 c342: u_a14 - u_a7 - 840 y_a7_proc_0 >= 2
 c343: u_a14 - u_a7 - 1091 y_a7_proc_1 >= 2
 c344: u_a7 - u_a14 - 948 y_a14_proc_0 >= -2603
 c345: u_a7 - u_a14 - 811 y_a14_proc_1 >= -2603
 c346: u_a9 - u_a8 - 1034 y_a8_proc_1 >= 1
 c347: u_a8 - u_a9 - 934 y_a9_proc_1 >= -2
 c348: u_a11 - u_a8 - 1034 y_a8_proc_1 >= 1
 c349: u_a8 - u_a11 - 1204 y_a11_proc_1 >= -2602
 c350: u_a12 - u_a8 - 1034 y_a8_proc_1 >= -2599
 c351: u_a8 - u_a12 - 1233 y_a12_proc_1 >= -2
 c352: u_a13 - u_a8 - 1034 y_a8_proc_1 >= 999999999
 c353: u_a8 - u_a13 - 962 y_a13_proc_1 >= -1000000000
 c354: u_a14 - u_a8 - 1034 y_a8_proc_1 >= -2598
 c355: u_a8 - u_a14 - 811 y_a14_proc_1 >= -3
 c356: u_a10 - u_a9 - 1239 y_a9_proc_0 >= -2600
 c357: u_a9 - u_a10 - 1137 y_a10_proc_0 >= -1
 c358: u_a11 - u_a9 - 1239 y_a9_proc_0 >= -2601
 c359: u_a11 - u_a9 - 934 y_a9_proc_1 >= -2601
 c360: u_a9 - u_a11 - 463 y_a11_proc_0 >= 0
 c361: u_a9 - u_a11 - 1204 y_a11_proc_1 >= 0
 c362: u_a12 - u_a9 - 1239 y_a9_proc_0 >= -2600
 c363: u_a12 - u_a9 - 934 y_a9_proc_1 >= -2600
 c364: u_a9 - u_a12 - 1087 y_a12_proc_0 >= -1
 c365: u_a9 - u_a12 - 1233 y_a12_proc_1 >= -1
 c366: u_a13 - u_a9 - 934 y_a9_proc_1 >= 999999998
 c367: u_a9 - u_a13 - 962 y_a13_proc_1 >= -999999999
 c368: u_a14 - u_a9 - 1239 y_a9_proc_0 >= -2600
 c369: u_a14 - u_a9 - 934 y_a9_proc_1 >= -2600
 c370: u_a9 - u_a14 - 948 y_a14_proc_0 >= -1
 c371: u_a9 - u_a14 - 811 y_a14_proc_1 >= -1
 c372: u_a11 - u_a10 - 1137 y_a10_proc_0 >= -1
 c373: u_a10 - u_a11 - 463 y_a11_proc_0 >= 0
 c374: u_a12 - u_a10 - 1137 y_a10_proc_0 >= -1
 c375: u_a10 - u_a12 - 1087 y_a12_proc_0 >= 0
 c376: u_a14 - u_a10 - 1137 y_a10_proc_0 >= 0
 c377: u_a10 - u_a14 - 948 y_a14_proc_0 >= -1
 c378: u_a12 - u_a11 - 463 y_a11_proc_0 >= 0
 c379: u_a12 - u_a11 - 1204 y_a11_proc_1 >= -2600
 c380: u_a11 - u_a12 - 1087 y_a12_proc_0 >= -1
 c381: u_a11 - u_a12 - 1233 y_a12_proc_1 >= -2601
 c382: u_a13 - u_a11 - 1204 y_a11_proc_1 >= 999998699
 c383: u_a11 - u_a13 - 962 y_a13_proc_1 >= -1000001300
 c384: u_a14 - u_a11 - 463 y_a11_proc_0 >= 0
 c385: u_a14 - u_a11 - 1204 y_a11_proc_1 >= -2600
 c386: u_a11 - u_a14 - 948 y_a14_proc_0 >= -1
 c387: u_a11 - u_a14 - 811 y_a14_proc_1 >= -2601
 c388: u_a13 - u_a12 - 1233 y_a12_proc_1 >= 999998699
 c389: u_a12 - u_a13 - 962 y_a13_proc_1 >= -1000001300
 c390: u_a14 - u_a12 - 1087 y_a12_proc_0 >= 0
 c391: u_a14 - u_a12 - 1233 y_a12_proc_1 >= -2600
 c392: u_a12 - u_a14 - 948 y_a14_proc_0 >= -1
 c393: u_a12 - u_a14 - 811 y_a14_proc_1 >= -2601
 c394: u_a14 - u_a13 - 962 y_a13_proc_1 >= -1000001300
 c395: u_a13 - u_a14 - 811 y_a14_proc_1 >= 999998699

Bounds
End
